1 3 100 186155.75
1 3 200 191455.08
1 3 300 192021.19
2 3 100 255051.91
2 3 200 254227.76
2 3 300 255416.40
3 3 100 221080.14
3 3 200 221980.85
3 3 300 224948.94
4 3 100 193905.14
4 3 200 192252.01
4 3 300 202431.39
5 3 100 172090.30
5 3 200 169965.47
5 3 300 168515.96
